
Gurobi 13.0.2 (win64) logging started Thu Jul 23 17:15:25 2026

Set parameter LogFile to value "E:\codes\ExactEBRP\results\gf_gurobi_performance_recovery_round29\runs\stage2__tight_T_seed5102__c3_replica__300s\external\native_logs\R.0.0_lp.gurobi.log"
Gurobi Optimizer version 13.0.2 build v13.0.2rc1 (win64 - Windows 10.0 (19045.2))

CPU model: 12th Gen Intel(R) Core(TM) i7-12700KF, instruction set [SSE2|AVX|AVX2]
Thread count: 12 physical cores, 20 logical processors, using up to 1 threads

Non-default parameters:
TimeLimit  258.3489345
MIPGap  0
MIPGapAbs  0
LogToConsole  0
Threads  1

Optimize a model with 11916 rows, 3378 columns and 67132 nonzeros (Min)
Model fingerprint: 0x9bae3f1c
Model has 21 linear objective coefficients
Coefficient statistics:
  Matrix range     [7e-03, 2e+04]
  Objective range  [7e-03, 1e+00]
  Bounds range     [9e-02, 6e+02]
  RHS range        [8e-02, 5e+04]

Presolve removed 1101 rows and 111 columns
Presolve time: 0.04s
Presolved: 10815 rows, 3269 columns, 63255 nonzeros

Iteration    Objective       Primal Inf.    Dual Inf.      Time
       0    1.1975608e-02   4.115437e+02   0.000000e+00      0s

Solved in 2228 iterations and 0.18 seconds (0.46 work units)
Infeasible model

User-callback calls 2392, time in user-callback 0.00 sec
